\ Model Capital Budgeting Problem
\ LP format - for model browsing. Use MPS format to capture full model detail.
Maximize
  44.9126706069 x[0] + 90.0274097472 x[1] + 32.8890701549 x[2]
   + 15.6850487404 x[3] + 13.4929672422 x[4]
Subject To
 BudgetConstraint: 99.8600887538 x[0] + 84.8825557736 x[1]
   + 43.2010883087 x[2] + 11.6882211382 x[3] + 71.5277301748 x[4]
   <= 314.037159669
 CapacityConstraint_0: 58.9511041663 x[0] <= 51.0495563741
 CapacityConstraint_1: 71.5031268462 x[1] <= 43.5897332565
 CapacityConstraint_2: 38.709535483 x[2] <= 79.5165132171
 CapacityConstraint_3: 60.1417936647 x[3] <= 12.3269931706
 CapacityConstraint_4: 30.194876849 x[4] <= 65.8165827948
Bounds
Binaries
 x[0] x[1] x[2] x[3] x[4]
End
